# Solution for model r5_t36_m8_7 Batch Number: 4
# Finished Task: 35 / 36
# Makespan: 733.0, Total Distance: 828.0, Total Time: 10.9567
# R O S F Batch
0 0 15 0.0 0.0 -1
1 1 40 0.0 0.0 -1
2 2 31 0.0 0.0 -1
3 3 10 0.0 0.0 -1
4 4 12 0.0 0.0 -1
5 1 7 410.0 436.0 0
6 0 27 614.0 636.0 3
7 1 14 463.0 494.0 2
8 2 24 628.0 648.0 3
9 2 34 398.0 436.0 0
10 3 -1 397.0 436.0 0
11 4 21 460.0 497.0 3
12 4 25 51.0 86.0 0
13 4 11 432.0 460.0 2
14 1 30 508.0 546.0 2
15 0 39 269.0 293.0 0
16 1 17 141.0 171.0 0
17 1 19 220.0 245.0 0
18 4 35 299.0 322.0 2
19 1 5 272.0 299.0 0
20 0 6 525.0 564.0 2
21 4 22 636.0 675.0 3
22 4 -1 694.0 733.0 3
23 2 9 334.0 372.0 0
24 2 -1 674.0 700.0 3
25 4 32 100.0 121.0 0
26 2 23 299.0 319.0 0
27 0 37 648.0 669.0 3
28 1 -1 625.0 656.0 3
29 -1 -1 -1.0 -1.0 0
30 1 28 580.0 613.0 2
31 2 38 32.0 52.0 0
32 4 36 121.0 160.0 0
33 0 20 410.0 436.0 1
34 2 8 574.0 613.0 2
35 4 13 352.0 373.0 2
36 4 18 201.0 231.0 0
37 0 -1 700.0 733.0 3
38 2 26 80.0 118.0 0
39 0 33 372.0 396.0 0
40 1 16 73.0 108.0 0
